RT is False
Default write of storage_offers_DA.csv just to have a file (but constraint should be inactive)
Reading model...
...model read.
creating competitive generators file...
...competitive generators recorded.
Loading data...
.. day-ahead data with real-time VRE data read.
Compiling instance...
...instance created.
Creating Offer Mitigation (model will solve as dispatch if TRUE)...
...storage offer mitigation file created
Converting model to MPEC...
...converted
NOTE: initial MIP solve with only storage competitive to get feasible solution
Solving...

Welcome to IBM(R) ILOG(R) CPLEX(R) Interactive Optimizer 12.9.0.0
  with Simplex, Mixed Integer & Barrier Optimizers
5725-A06 5725-A29 5724-Y48 5724-Y49 5724-Y54 5724-Y55 5655-Y21
Copyright IBM Corp. 1988, 2019.  All Rights Reserved.

Type 'help' for a list of available commands.
Type 'help' followed by a command name for more
information on commands.

CPLEX> Logfile 'cplex.log' closed.
Logfile 'C:\Users\llavin\Desktop\test826\logs\tmp86s74_b8.cplex.log' open.
CPLEX> New value for parallel optimization mode: -1
CPLEX> New value for emphasis for MIP optimization: 1
CPLEX> New value for mixed integer optimality gap tolerance: 0.01
CPLEX> New value for integrality tolerance: 1e-12
CPLEX> New value for deterministic time limit in ticks: 75000
CPLEX> Problem 'C:\Users\llavin\Desktop\test826\logs\tmpxxoijoj9.pyomo.lp' read.
Read time = 0.25 sec. (13.92 ticks)
CPLEX> Problem name         : C:\Users\llavin\Desktop\test826\logs\tmpxxoijoj9.pyomo.lp
Objective sense      : Maximize
Variables            :   53809  [Nneg: 1,  Box: 22004,  Free: 4464,
                                 Binary: 27340]
Objective nonzeros   :    9089
Linear constraints   :  123253  [Less: 41346,  Greater: 59096,  Equal: 22811]
  Nonzeros           :  293156
  RHS nonzeros       :   67502

Variables            : Min LB: -5000.000        Max UB: 1000000.       
Objective nonzeros   : Min   : 0.008333333      Max   : 2500.000       
Linear constraints   :
  Nonzeros           : Min   : 0.008333333      Max   : 1000000.       
  RHS nonzeros       : Min   : 0.008333333      Max   : 1000000.       
CPLEX> CPXPARAM_Parallel                                -1
CPXPARAM_Emphasis_MIP                            1
CPXPARAM_DetTimeLimit                            75000
CPXPARAM_MIP_Tolerances_MIPGap                   0.01
CPXPARAM_MIP_Tolerances_Integrality              9.9999999999999998e-13
Tried aggregator 3 times.
MIP Presolve eliminated 88643 rows and 19001 columns.
MIP Presolve added 3359 rows and 0 columns.
MIP Presolve modified 24899 coefficients.
Aggregator did 12956 substitutions.
Reduced MIP has 25013 rows, 21304 columns, and 72546 nonzeros.
Reduced MIP has 8430 binaries, 0 generals, 0 SOSs, and 0 indicators.
Presolve time = 0.28 sec. (169.92 ticks)
Probing fixed 377 vars, tightened 4427 bounds.
Probing time = 0.06 sec. (19.52 ticks)
Tried aggregator 2 times.
MIP Presolve eliminated 848 rows and 754 columns.
MIP Presolve modified 3075 coefficients.
Aggregator did 28 substitutions.
Reduced MIP has 24137 rows, 20522 columns, and 70012 nonzeros.
Reduced MIP has 8053 binaries, 0 generals, 0 SOSs, and 0 indicators.
Presolve time = 0.11 sec. (87.93 ticks)
Probing fixed 0 vars, tightened 277 bounds.
Probing time = 0.14 sec. (22.81 ticks)
Clique table members: 43793.
MIP emphasis: integer feasibility.
MIP search method: dynamic search.
Parallel mode: opportunistic, using up to 32 threads.
Root relaxation solution time = 0.44 sec. (550.62 ticks)

        Nodes                                         Cuts/
   Node  Left     Objective  IInf  Best Integer    Best Bound    ItCnt     Gap

      0     0      -23.4052    48                    -23.4052     3965         
      0     0      -23.4052     5                     Cuts: 7     3968         
      0     0      -23.4052     4                   Covers: 1     3969         
      0     0      -23.4052     3                   Covers: 1     3970         
      0    10    infeasible                         -122.2417     4058         
Elapsed time = 2.89 sec. (1450.13 ticks, tree = 0.02 MB, solutions = 0)
    503    87   -16142.8418    34                   -122.2417     6526         
    834   361   -64757.1286    39                   -122.2417    22394         
   1229   380    -6489.2806    15                   -122.2417    37624         
   1640   502    infeasible                         -122.2417    54166         
   1997   584   -66029.9985    33                   -122.2417    65913         
   2384   631 -2626954.5376   117                   -122.2417    72365         
   2773   892    infeasible                         -122.2417   126959         
   3230   867    infeasible                         -122.2417   124448         
   3649   988    infeasible                         -122.2417   145587         
   5657  1125    infeasible                         -122.2417   187949         
Elapsed time = 16.81 sec. (4553.59 ticks, tree = 46.44 MB, solutions = 0)
   7486  2074    infeasible                         -122.2417   294322         
   9002  2131    infeasible                         -122.2417   309597         
  10574  2027 -1381583.2867    81                   -122.2417   286009         
  11938  2129  -563851.6069    42                   -122.2417   302500         
  13102  2384 -1203384.5961   141                   -122.2417   344735         
  13771  2362  -794779.9965   122                   -122.2417   337719         
  14129  2525  -221458.2118    53                   -122.2417   357687         
  14426  2526    infeasible                         -122.2417   359530         
  14473  2446     -122.2417     3                   -122.2417   353514         
  14475  5190    infeasible                         -122.2417   657856         
Elapsed time = 39.08 sec. (15089.95 ticks, tree = 109.08 MB, solutions = 1)
* 14477     1      integral     0     -122.2417     -122.2417   657857    0.00%

Flow cuts applied:  1

Root node processing (before b&c):
  Real time             =    2.17 sec. (1446.71 ticks)
Parallel b&c, 32 threads:
  Real time             =   37.02 sec. (13796.04 ticks)
  Sync time (average)   =    0.85 sec.
  Wait time (average)   =    0.22 sec.
                          ------------
Total (root+branch&cut) =   39.19 sec. (15242.75 ticks)

Solution pool: 1 solution saved.

MIP - Integer optimal solution:  Objective = -1.2224169692e+02
Solution time =   39.22 sec.  Iterations = 657902  Nodes = 14484
Deterministic time = 15242.90 ticks  (388.66 ticks/sec)

CPLEX> Incumbent solution written to file 'C:\Users\llavin\Desktop\test826\logs\tmpawno60el.cplex.sol'.
CPLEX> NOTE: no warmstart specified for MIP iteration, default behavior is true
NOTE: resolving with all competitive generators using storage-only solution to warmstart
Solving...

Welcome to IBM(R) ILOG(R) CPLEX(R) Interactive Optimizer 12.9.0.0
  with Simplex, Mixed Integer & Barrier Optimizers
5725-A06 5725-A29 5724-Y48 5724-Y49 5724-Y54 5724-Y55 5655-Y21
Copyright IBM Corp. 1988, 2019.  All Rights Reserved.

Type 'help' for a list of available commands.
Type 'help' followed by a command name for more
information on commands.

CPLEX> Logfile 'cplex.log' closed.
Logfile 'C:\Users\llavin\Desktop\test826\logs\tmpeiic0mtr.cplex.log' open.
CPLEX> New value for parallel optimization mode: -1
CPLEX> New value for emphasis for MIP optimization: 1
CPLEX> New value for mixed integer optimality gap tolerance: 0.01
CPLEX> New value for integrality tolerance: 1e-12
CPLEX> New value for deterministic time limit in ticks: 75000
CPLEX> Problem 'C:\Users\llavin\Desktop\test826\logs\tmpw_u1q82o.pyomo.lp' read.
Read time = 0.22 sec. (13.94 ticks)
CPLEX> MIP start file 'C:\Users\llavin\Desktop\test826\logs\tmp660wba34.cplex.mst' read.
CPLEX> Problem name         : C:\Users\llavin\Desktop\test826\logs\tmpw_u1q82o.pyomo.lp
Objective sense      : Maximize
Variables            :   54529  [Nneg: 1,  Box: 22724,  Free: 4464,
                                 Binary: 27340]
Objective nonzeros   :    9809
Linear constraints   :  123253  [Less: 41346,  Greater: 59096,  Equal: 22811]
  Nonzeros           :  293156
  RHS nonzeros       :   67502

Variables            : Min LB: -5000.000        Max UB: 1000000.       
Objective nonzeros   : Min   : 0.008333333      Max   : 2500.000       
Linear constraints   :
  Nonzeros           : Min   : 0.008333333      Max   : 1000000.       
  RHS nonzeros       : Min   : 0.008333333      Max   : 1000000.       
CPLEX> CPXPARAM_Parallel                                -1
CPXPARAM_Emphasis_MIP                            1
CPXPARAM_DetTimeLimit                            75000
CPXPARAM_MIP_Tolerances_MIPGap                   0.01
CPXPARAM_MIP_Tolerances_Integrality              9.9999999999999998e-13
Warning:  No solution found from 1 MIP starts.
Retaining values of one MIP start for possible repair.
Tried aggregator 3 times.
MIP Presolve eliminated 88643 rows and 19721 columns.
MIP Presolve added 3359 rows and 0 columns.
MIP Presolve modified 24899 coefficients.
Aggregator did 12956 substitutions.
Reduced MIP has 25013 rows, 21304 columns, and 72546 nonzeros.
Reduced MIP has 8430 binaries, 0 generals, 0 SOSs, and 0 indicators.
Presolve time = 0.28 sec. (170.27 ticks)
Probing fixed 377 vars, tightened 4427 bounds.
Probing time = 0.06 sec. (19.52 ticks)
Tried aggregator 2 times.
MIP Presolve eliminated 848 rows and 754 columns.
MIP Presolve modified 3075 coefficients.
Aggregator did 28 substitutions.
Reduced MIP has 24137 rows, 20522 columns, and 70012 nonzeros.
Reduced MIP has 8053 binaries, 0 generals, 0 SOSs, and 0 indicators.
Presolve time = 0.11 sec. (87.93 ticks)
Probing fixed 0 vars, tightened 277 bounds.
Probing time = 0.13 sec. (22.81 ticks)
Clique table members: 43793.
MIP emphasis: integer feasibility.
MIP search method: dynamic search.
Parallel mode: opportunistic, using up to 32 threads.
Root relaxation solution time = 0.42 sec. (550.62 ticks)

        Nodes                                         Cuts/
   Node  Left     Objective  IInf  Best Integer    Best Bound    ItCnt     Gap

      0     0      -23.4052    48                    -23.4052     3965         
      0     0      -23.4052     5                     Cuts: 7     3968         
      0     0      -23.4052     4                   Covers: 1     3969         
      0     0      -23.4052     3                   Covers: 1     3970         
Repair heuristic found nothing.
      0     5    infeasible                          -77.3343     3989         
Elapsed time = 3.31 sec. (1618.12 ticks, tree = 0.02 MB, solutions = 0)
    551   171    infeasible                         -122.2417     7767         
    969   392   -17387.8972    11                   -122.2417    19406         
   1452   509  -233063.5263    58                   -122.2417    31928         
   1982   570    infeasible                         -122.2417    48401         
   2497  1010    infeasible                         -122.2417    76391         
   3020  1157   -57719.2286    10                   -122.2417    86498         
   3551  1094   -50980.2210    11                   -122.2417    79207         
   4150  1428    -1087.0479     9                   -122.2417   106000         
   4766  1597    -4352.5305    12                   -122.2417   109285         
   7400  2034  -473433.4732   173                   -122.2417   139590         
Elapsed time = 18.69 sec. (4722.00 ticks, tree = 37.07 MB, solutions = 0)
   9935  3048    -2076.2271    12                   -122.2417   168726         
  11786  3346     -656.0877     7                   -122.2417   199573         
  12903  3565    -3316.7850    16                   -122.2417   201825         
  13078  3442    infeasible                         -122.2417   200044         
  13086  6357    infeasible                         -122.2417   296332         
  15120   665    -3942.5804    18                   -122.2417   340942         
* 16128   731      integral     0     -359.7041     -122.2417   349076   66.02%
  17666  1043  -173715.3702    51     -359.7041     -123.1396   393462   65.77%
  19625   592    infeasible           -359.7041     -124.3868   429686   65.42%

Cover cuts applied:  7
Implied bound cuts applied:  12
Flow cuts applied:  11
Mixed integer rounding cuts applied:  9
Zero-half cuts applied:  1
Gomory fractional cuts applied:  17

Root node processing (before b&c):
  Real time             =    2.56 sec. (1613.30 ticks)
Parallel b&c, 32 threads:
  Real time             =   42.70 sec. (13313.39 ticks)
  Sync time (average)   =    2.16 sec.
  Wait time (average)   =    0.32 sec.
                          ------------
Total (root+branch&cut) =   45.27 sec. (14926.68 ticks)

Solution pool: 1 solution saved.

MIP - Integer optimal, tolerance (0.01/1e-06):  Objective = -3.5970414952e+02
Current MIP best bound = -3.5696858686e+02 (gap = 2.73556, 0.76%)
Solution time =   45.33 sec.  Iterations = 432523  Nodes = 19977 (7)
Deterministic time = 14926.84 ticks  (329.31 ticks/sec)

CPLEX> Incumbent solution written to file 'C:\Users\llavin\Desktop\test826\logs\tmp62pakrjc.cplex.sol'.
CPLEX> Exporting results... 
